(set-info :smt-lib-version 2.6)
(set-logic QF_NIA)
(set-info :source |
Generated by: Cristina Borralleras, Daniel Larraz, Albert Oliveras, Enric Rodriguez-Carbonell, Albert Rubio
Generated on: 2017-04-27
Generator: VeryMax
Application: Termination proving
Target solver: barcelogic
|)
(set-info :license "https://creativecommons.org/licenses/by/4.0/")
(set-info :category "industrial")
(set-info :status unsat)
(declare-fun Nl147a_195^01 () Int)
(declare-fun Nl147h_32^01 () Int)
(declare-fun Nl147i_30^01 () Int)
(declare-fun Nl147l_180^01 () Int)
(declare-fun Nl147l_29^01 () Int)
(declare-fun Nl147tp_35^01 () Int)
(declare-fun lam0n0 () Int)
(declare-fun lam0n1 () Int)
(declare-fun lam0n2 () Int)
(declare-fun lam0n3 () Int)
(declare-fun lam0n4 () Int)
(declare-fun lam0n5 () Int)
(declare-fun lam0n13 () Int)
(declare-fun lam0n10 () Int)
(declare-fun lam0n11 () Int)
(declare-fun lam0n12 () Int)
(declare-fun Nl147CT1 () Int)
(declare-fun lam0n6 () Int)
(declare-fun lam0n7 () Int)
(declare-fun lam0n8 () Int)
(declare-fun lam0n9 () Int)
(declare-fun lam1n0 () Int)
(declare-fun lam1n1 () Int)
(declare-fun lam1n2 () Int)
(declare-fun lam1n3 () Int)
(declare-fun lam1n4 () Int)
(declare-fun lam1n5 () Int)
(declare-fun lam1n13 () Int)
(declare-fun lam1n10 () Int)
(declare-fun lam1n11 () Int)
(declare-fun lam1n12 () Int)
(declare-fun lam1n6 () Int)
(declare-fun lam1n7 () Int)
(declare-fun lam1n8 () Int)
(declare-fun lam1n9 () Int)
(declare-fun lam2n0 () Int)
(declare-fun lam2n1 () Int)
(declare-fun lam2n2 () Int)
(declare-fun lam2n3 () Int)
(declare-fun lam2n4 () Int)
(declare-fun lam2n5 () Int)
(declare-fun lam2n24 () Int)
(declare-fun lam2n25 () Int)
(declare-fun lam2n26 () Int)
(declare-fun lam2n27 () Int)
(declare-fun lam2n28 () Int)
(declare-fun lam2n6 () Int)
(declare-fun lam2n7 () Int)
(declare-fun lam2n8 () Int)
(declare-fun lam2n9 () Int)
(declare-fun lam2n10 () Int)
(declare-fun lam2n11 () Int)
(declare-fun lam2n12 () Int)
(declare-fun lam2n13 () Int)
(declare-fun lam2n14 () Int)
(declare-fun lam2n15 () Int)
(declare-fun lam2n16 () Int)
(declare-fun lam2n17 () Int)
(declare-fun lam2n18 () Int)
(declare-fun lam2n19 () Int)
(declare-fun lam2n20 () Int)
(declare-fun lam2n21 () Int)
(declare-fun lam2n22 () Int)
(declare-fun lam2n23 () Int)
(declare-fun undef84935 () Int)
(declare-fun undef84958 () Int)
(declare-fun undef24361 () Int)
(declare-fun undef24365 () Int)
(declare-fun undef85377 () Int)
(declare-fun tp_35^0 () Int)
(declare-fun undef85408 () Int)
(declare-fun undef24349 () Int)
(declare-fun undef24384 () Int)
(declare-fun undef24599 () Int)
(declare-fun undef85400 () Int)
(declare-fun undef24405 () Int)
(declare-fun undef24548 () Int)
(declare-fun undef24576 () Int)
(declare-fun undef24564 () Int)
(declare-fun undef24603 () Int)
(declare-fun undef24607 () Int)
(declare-fun undef85411 () Int)
(declare-fun undef84922 () Int)
(declare-fun undef84971 () Int)
(declare-fun undef84979 () Int)
(declare-fun undef84980 () Int)
(declare-fun undef85365 () Int)
(declare-fun undef85404 () Int)
(declare-fun l_180^0 () Int)
(declare-fun undef24620 () Int)
(declare-fun a_195^0 () Int)
(declare-fun undef24610 () Int)
(declare-fun lam3n0 () Int)
(declare-fun lam3n1 () Int)
(declare-fun lam3n2 () Int)
(declare-fun lam3n3 () Int)
(declare-fun lam3n4 () Int)
(declare-fun lam3n5 () Int)
(declare-fun lam3n6 () Int)
(declare-fun lam3n7 () Int)
(declare-fun lam3n17 () Int)
(declare-fun lam3n15 () Int)
(declare-fun lam3n16 () Int)
(declare-fun lam3n8 () Int)
(declare-fun lam3n9 () Int)
(declare-fun lam3n10 () Int)
(declare-fun lam3n11 () Int)
(declare-fun lam3n12 () Int)
(declare-fun lam3n13 () Int)
(declare-fun lam3n14 () Int)
(declare-fun lam4n0 () Int)
(declare-fun lam4n1 () Int)
(declare-fun lam4n2 () Int)
(declare-fun lam4n3 () Int)
(declare-fun lam4n4 () Int)
(declare-fun lam4n5 () Int)
(declare-fun lam4n6 () Int)
(declare-fun lam4n7 () Int)
(declare-fun lam4n17 () Int)
(declare-fun lam4n15 () Int)
(declare-fun lam4n16 () Int)
(declare-fun lam4n8 () Int)
(declare-fun lam4n9 () Int)
(declare-fun lam4n10 () Int)
(declare-fun lam4n11 () Int)
(declare-fun lam4n12 () Int)
(declare-fun lam4n13 () Int)
(declare-fun lam4n14 () Int)
(assert ( and ( <= ( - 1 ) Nl147a_195^01 ) ( <= Nl147a_195^01 1 ) ( <= ( - 1 ) Nl147h_32^01 ) ( <= Nl147h_32^01 1 ) ( <= ( - 1 ) Nl147i_30^01 ) ( <= Nl147i_30^01 1 ) ( <= ( - 1 ) Nl147l_180^01 ) ( <= Nl147l_180^01 1 ) ( <= ( - 1 ) Nl147l_29^01 ) ( <= Nl147l_29^01 1 ) ( <= ( - 1 ) Nl147tp_35^01 ) ( <= Nl147tp_35^01 1 ) ))
(assert ( or ( and ( >= lam0n0 0 ) ( >= lam0n1 0 ) ( >= lam0n2 0 ) ( >= lam0n3 0 ) ( >= lam0n4 0 ) ( >= lam0n5 0 ) ( >= lam0n13 0 ) ( > ( + ( * 1 lam0n3 ) ( * 1 lam0n4 ) ( * 2 lam0n5 ) ( * 1 lam0n10 ) ( * 1 lam0n11 ) ( * ( - 1 ) lam0n12 ) ( * Nl147CT1 lam0n13 ) ( - 1 ) ) 0 ) ( = ( * Nl147a_195^01 lam0n13 ) 0 ) ( = ( * Nl147h_32^01 lam0n13 ) 0 ) ( = ( + ( * ( - 1 ) lam0n1 ) ( * 1 lam0n3 ) ( * 1 lam0n10 ) ( * Nl147i_30^01 lam0n13 ) ) 0 ) ( = ( + ( * 1 lam0n12 ) ( * Nl147l_180^01 lam0n13 ) ) 0 ) ( = ( + ( * ( - 1 ) lam0n3 ) ( * ( - 1 ) lam0n4 ) ( * Nl147l_29^01 lam0n13 ) ) 0 ) ( = ( + ( * 1 lam0n6 ) ( * Nl147tp_35^01 lam0n13 ) ) 0 ) ( = ( + ( * 1 lam0n7 ) ( * 1 lam0n8 ) ) 0 ) ( = ( * ( - 1 ) lam0n2 ) 0 ) ( = ( + ( * 1 lam0n2 ) ( * ( - 1 ) lam0n5 ) ) 0 ) ( = ( * ( - 1 ) lam0n7 ) 0 ) ( = ( + ( * ( - 1 ) lam0n8 ) ( * 1 lam0n9 ) ) 0 ) ( = ( * ( - 1 ) lam0n9 ) 0 ) ( = ( + ( * 1 lam0n4 ) ( * 1 lam0n11 ) ) 0 ) ( = ( + ( * ( - 1 ) lam0n10 ) ( * ( - 1 ) lam0n11 ) ) 0 ) ( = ( * ( - 1 ) lam0n6 ) 0 ) ) ( and ( >= lam1n0 0 ) ( >= lam1n1 0 ) ( >= lam1n2 0 ) ( >= lam1n3 0 ) ( >= lam1n4 0 ) ( >= lam1n5 0 ) ( >= lam1n13 0 ) ( > ( + ( * 1 lam1n3 ) ( * 1 lam1n4 ) ( * 2 lam1n5 ) ( * 1 lam1n10 ) ( * 1 lam1n11 ) ( * ( - 1 ) lam1n12 ) ( * Nl147CT1 lam1n13 ) ( - 1 ( + ( + ( + Nl147CT1 ( * Nl147h_32^01 0 ) ) ( * Nl147i_30^01 0 ) ) ( * Nl147tp_35^01 0 ) ) ) ) 0 ) ( = ( + ( * Nl147a_195^01 lam1n13 ) ( - ( + 0 Nl147a_195^01 ) ) ) 0 ) ( = ( * Nl147h_32^01 lam1n13 ) 0 ) ( = ( + ( * ( - 1 ) lam1n1 ) ( * 1 lam1n3 ) ( * 1 lam1n10 ) ( * Nl147i_30^01 lam1n13 ) ) 0 ) ( = ( + ( * 1 lam1n12 ) ( * Nl147l_180^01 lam1n13 ) ( - ( + 0 Nl147l_180^01 ) ) ) 0 ) ( = ( + ( * ( - 1 ) lam1n3 ) ( * ( - 1 ) lam1n4 ) ( * Nl147l_29^01 lam1n13 ) ( - ( + 0 Nl147l_29^01 ) ) ) 0 ) ( = ( + ( * 1 lam1n6 ) ( * Nl147tp_35^01 lam1n13 ) ) 0 ) ( = ( + ( * 1 lam1n7 ) ( * 1 lam1n8 ) ) 0 ) ( = ( * ( - 1 ) lam1n2 ) 0 ) ( = ( + ( * 1 lam1n2 ) ( * ( - 1 ) lam1n5 ) ) 0 ) ( = ( * ( - 1 ) lam1n7 ) 0 ) ( = ( + ( * ( - 1 ) lam1n8 ) ( * 1 lam1n9 ) ) 0 ) ( = ( * ( - 1 ) lam1n9 ) 0 ) ( = ( + ( * 1 lam1n4 ) ( * 1 lam1n11 ) ) 0 ) ( = ( + ( * ( - 1 ) lam1n10 ) ( * ( - 1 ) lam1n11 ) ( - ( + 0 ( * Nl147i_30^01 1 ) ) ) ) 0 ) ( = ( + ( * ( - 1 ) lam1n6 ) ( - ( + 0 ( * Nl147h_32^01 1 ) ) ) ) 0 ) ( = ( - ( + 0 ( * Nl147tp_35^01 1 ) ) ) 0 ) ) ))
(assert ( and ( not ( <= 1 0 ) ) ( <= ( + ( * ( - 1 ) undef84935 ) undef84958 ) 0 ) ( <= ( + 1 undef24361 ( * ( - 1 ) undef24365 ) ) 0 ) ( <= ( + 1 ( * ( - 1 ) undef24365 ) undef85377 ) 0 ) ( <= ( + 2 ( * ( - 1 ) undef24365 ) ) 0 ) ( <= ( + 2 ( * ( - 1 ) undef84958 ) ) 0 ) ( = ( + tp_35^0 ( * ( - 1 ) undef85408 ) ) 0 ) ( = undef24349 0 ) ( = undef24361 0 ) ( = ( + undef24365 ( * ( - 1 ) undef24384 ) ) 0 ) ( = ( + ( * ( - 1 ) undef24365 ) undef24599 ) 0 ) ( = ( + ( * ( - 1 ) undef24365 ) undef85400 ) 0 ) ( = ( + undef24384 ( * ( - 1 ) undef24405 ) ) 0 ) ( = ( + undef24548 ( * ( - 1 ) undef24576 ) ) 0 ) ( = ( + undef24564 ( * ( - 1 ) undef24603 ) ) 0 ) ( = ( + undef24564 ( * ( - 1 ) undef24607 ) ) 0 ) ( = ( + undef24603 ( * ( - 1 ) undef24607 ) ) 0 ) ( = ( + undef24607 ( * ( - 1 ) undef85411 ) ) 0 ) ( = ( + undef84922 ( * ( - 1 ) undef84971 ) ) 0 ) ( = ( + undef84922 ( * ( - 1 ) undef84979 ) ) 0 ) ( = ( + undef84979 ( * ( - 1 ) undef84980 ) ) 0 ) ( = ( + undef85365 ( * ( - 1 ) undef85404 ) ) 0 ) ( = ( + undef85365 ( * ( - 1 ) undef85408 ) ) 0 ) ( = ( + undef85404 ( * ( - 1 ) undef85408 ) ) 0 ) ( = ( + 1 undef24361 ( * ( - 1 ) undef85377 ) ) 0 ) ( = ( + ( - 1 ) l_180^0 ) 0 ) ( = ( + ( - 1 ) undef24620 ( * ( - 1 ) undef85377 ) ) 0 ) ( = ( + 1 ( * ( - 1 ) undef85377 ) ) 0 ) ( = ( + 2 ( * ( - 1 ) undef24576 ) ) 0 ) ( <= ( + ( + ( + ( + ( + Nl147CT1 ( * Nl147h_32^01 0 ) ) ( * Nl147i_30^01 0 ) ) ( * Nl147l_29^01 0 ) ) ( * Nl147tp_35^01 0 ) ) ( * ( + 0 Nl147a_195^01 ) a_195^0 ) ( * ( + 0 Nl147l_180^01 ) l_180^0 ) ( * ( + 0 ( * Nl147l_29^01 1 ) ) undef24365 ) ( * ( + 0 ( * Nl147h_32^01 1 ) ) undef24564 ) ( * ( + 0 ( * Nl147i_30^01 1 ) ) undef24576 ) ( * ( + 0 ( * Nl147tp_35^01 1 ) ) undef24610 ) ) 0 ) ))
(assert ( or ( or ( and ( >= lam3n0 0 ) ( >= lam3n1 0 ) ( >= lam3n2 0 ) ( >= lam3n3 0 ) ( >= lam3n4 0 ) ( >= lam3n5 0 ) ( >= lam3n6 0 ) ( >= lam3n7 0 ) ( >= lam3n17 0 ) ( > ( + ( * 1 lam3n4 ) ( * 1 lam3n5 ) ( * 2 lam3n6 ) ( * 2 lam3n7 ) ( * 1 lam3n15 ) ( * ( - 1 ) lam3n16 ) ( * Nl147CT1 lam3n17 ) ( - 1 ) ) 0 ) ( = ( + ( * 1 lam3n8 ) ( * Nl147a_195^01 lam3n17 ) ) 0 ) ( = ( + ( * 1 lam3n9 ) ( * Nl147h_32^01 lam3n17 ) ) 0 ) ( = ( + ( * ( - 1 ) lam3n0 ) ( * ( - 1 ) lam3n1 ) ( * Nl147i_30^01 lam3n17 ) ) 0 ) ( = ( + ( * 1 lam3n16 ) ( * Nl147l_180^01 lam3n17 ) ) 0 ) ( = ( + ( * 1 lam3n1 ) ( * Nl147l_29^01 lam3n17 ) ) 0 ) ( = ( * Nl147tp_35^01 lam3n17 ) 0 ) ( = ( * ( - 1 ) lam3n4 ) 0 ) ( = ( * ( - 1 ) lam3n2 ) 0 ) ( = ( + ( * 1 lam3n2 ) ( * ( - 1 ) lam3n6 ) ) 0 ) ( = ( + ( * ( - 1 ) lam3n8 ) ( * 1 lam3n15 ) ) 0 ) ( = ( + ( * 1 lam3n10 ) ( * 1 lam3n11 ) ) 0 ) ( = ( * ( - 1 ) lam3n11 ) 0 ) ( = ( * ( - 1 ) lam3n15 ) 0 ) ( = ( + ( * 1 lam3n12 ) ( * 1 lam3n13 ) ) 0 ) ( = ( * ( - 1 ) lam3n3 ) 0 ) ( = ( + ( * 1 lam3n3 ) ( * ( - 1 ) lam3n7 ) ) 0 ) ( = ( + ( * ( - 1 ) lam3n5 ) ( * ( - 1 ) lam3n12 ) ) 0 ) ( = ( + ( * ( - 1 ) lam3n13 ) ( * 1 lam3n14 ) ) 0 ) ( = ( + ( * ( - 1 ) lam3n9 ) ( * ( - 1 ) lam3n14 ) ) 0 ) ) ( and ( >= lam4n0 0 ) ( >= lam4n1 0 ) ( >= lam4n2 0 ) ( >= lam4n3 0 ) ( >= lam4n4 0 ) ( >= lam4n5 0 ) ( >= lam4n6 0 ) ( >= lam4n7 0 ) ( >= lam4n17 0 ) ( > ( + ( * 1 lam4n4 ) ( * 1 lam4n5 ) ( * 2 lam4n6 ) ( * 2 lam4n7 ) ( * 1 lam4n15 ) ( * ( - 1 ) lam4n16 ) ( * Nl147CT1 lam4n17 ) ( - 1 ) ) 0 ) ( = ( + ( * 1 lam4n8 ) ( * Nl147a_195^01 lam4n17 ) ) 0 ) ( = ( + ( * 1 lam4n9 ) ( * Nl147h_32^01 lam4n17 ) ) 0 ) ( = ( + ( * ( - 1 ) lam4n0 ) ( * ( - 1 ) lam4n1 ) ( * Nl147i_30^01 lam4n17 ) ) 0 ) ( = ( + ( * 1 lam4n16 ) ( * Nl147l_180^01 lam4n17 ) ) 0 ) ( = ( + ( * 1 lam4n1 ) ( * Nl147l_29^01 lam4n17 ) ) 0 ) ( = ( * Nl147tp_35^01 lam4n17 ) 0 ) ( = ( * ( - 1 ) lam4n4 ) 0 ) ( = ( * ( - 1 ) lam4n2 ) 0 ) ( = ( + ( * 1 lam4n2 ) ( * ( - 1 ) lam4n6 ) ) 0 ) ( = ( + ( * ( - 1 ) lam4n8 ) ( * 1 lam4n15 ) ) 0 ) ( = ( + ( * 1 lam4n10 ) ( * 1 lam4n11 ) ) 0 ) ( = ( * ( - 1 ) lam4n11 ) 0 ) ( = ( * ( - 1 ) lam4n15 ) 0 ) ( = ( + ( * 1 lam4n12 ) ( * 1 lam4n13 ) ) 0 ) ( = ( * ( - 1 ) lam4n3 ) 0 ) ( = ( + ( * 1 lam4n3 ) ( * ( - 1 ) lam4n7 ) ) 0 ) ( = ( + ( * ( - 1 ) lam4n5 ) ( * ( - 1 ) lam4n12 ) ) 0 ) ( = ( + ( * ( - 1 ) lam4n13 ) ( * 1 lam4n14 ) ) 0 ) ( = ( + ( * ( - 1 ) lam4n9 ) ( * ( - 1 ) lam4n14 ) ) 0 ) ) ) ( and ( and ( >= lam2n0 0 ) ( >= lam2n1 0 ) ( >= lam2n2 0 ) ( >= lam2n3 0 ) ( >= lam2n4 0 ) ( >= lam2n5 0 ) ( > ( + ( * 1 lam2n2 ) ( * 1 lam2n3 ) ( * 2 lam2n4 ) ( * 2 lam2n5 ) ( * 1 lam2n24 ) ( * ( - 1 ) lam2n25 ) ( * ( - 1 ) lam2n26 ) ( * ( - 1 ) lam2n27 ) ( * ( - 2 ) lam2n28 ) ( - 1 ( + ( + ( + ( + Nl147CT1 ( * Nl147h_32^01 0 ) ) ( * Nl147i_30^01 0 ) ) ( * Nl147l_29^01 0 ) ) ( * Nl147tp_35^01 0 ) ) ) ) 0 ) ( = ( - ( + 0 Nl147a_195^01 ) ) 0 ) ( = ( + ( * 1 lam2n25 ) ( - ( + 0 Nl147l_180^01 ) ) ) 0 ) ( = ( * 1 lam2n6 ) 0 ) ( = ( * 1 lam2n7 ) 0 ) ( = ( + ( * 1 lam2n2 ) ( * 1 lam2n8 ) ( * 1 lam2n24 ) ) 0 ) ( = ( + ( * ( - 1 ) lam2n2 ) ( * ( - 1 ) lam2n3 ) ( * ( - 1 ) lam2n4 ) ( * 1 lam2n9 ) ( * 1 lam2n10 ) ( * 1 lam2n11 ) ( - ( + 0 ( * Nl147l_29^01 1 ) ) ) ) 0 ) ( = ( + ( * ( - 1 ) lam2n9 ) ( * 1 lam2n12 ) ) 0 ) ( = ( * ( - 1 ) lam2n12 ) 0 ) ( = ( * 1 lam2n13 ) 0 ) ( = ( + ( * 1 lam2n14 ) ( * 1 lam2n15 ) ( - ( + 0 ( * Nl147h_32^01 1 ) ) ) ) 0 ) ( = ( + ( * ( - 1 ) lam2n13 ) ( * 1 lam2n28 ) ( - ( + 0 ( * Nl147i_30^01 1 ) ) ) ) 0 ) ( = ( * ( - 1 ) lam2n10 ) 0 ) ( = ( + ( * ( - 1 ) lam2n14 ) ( * 1 lam2n16 ) ) 0 ) ( = ( + ( * ( - 1 ) lam2n15 ) ( * ( - 1 ) lam2n16 ) ( * 1 lam2n17 ) ) 0 ) ( = ( - ( + 0 ( * Nl147tp_35^01 1 ) ) ) 0 ) ( = ( * 1 lam2n26 ) 0 ) ( = ( + ( * 1 lam2n18 ) ( * 1 lam2n19 ) ) 0 ) ( = ( * ( - 1 ) lam2n1 ) 0 ) ( = ( + ( * 1 lam2n1 ) ( * ( - 1 ) lam2n5 ) ) 0 ) ( = ( * ( - 1 ) lam2n18 ) 0 ) ( = ( + ( * ( - 1 ) lam2n19 ) ( * 1 lam2n20 ) ) 0 ) ( = ( * ( - 1 ) lam2n20 ) 0 ) ( = ( + ( * 1 lam2n21 ) ( * 1 lam2n22 ) ) 0 ) ( = ( + ( * 1 lam2n3 ) ( * ( - 1 ) lam2n24 ) ( * ( - 1 ) lam2n26 ) ( * 1 lam2n27 ) ) 0 ) ( = ( * ( - 1 ) lam2n11 ) 0 ) ( = ( + ( * ( - 1 ) lam2n21 ) ( * 1 lam2n23 ) ) 0 ) ( = ( + ( * ( - 1 ) lam2n6 ) ( * ( - 1 ) lam2n22 ) ( * ( - 1 ) lam2n23 ) ) 0 ) ( = ( * ( - 1 ) lam2n17 ) 0 ) ) ( and ( >= lam0n0 0 ) ( >= lam0n1 0 ) ( >= lam0n2 0 ) ( >= lam0n3 0 ) ( >= lam0n4 0 ) ( >= lam0n5 0 ) ( >= lam0n13 0 ) ( > ( + ( * 1 lam0n3 ) ( * 1 lam0n4 ) ( * 2 lam0n5 ) ( * 1 lam0n10 ) ( * 1 lam0n11 ) ( * ( - 1 ) lam0n12 ) ( * Nl147CT1 lam0n13 ) ( - 1 ) ) 0 ) ( = ( * Nl147a_195^01 lam0n13 ) 0 ) ( = ( * Nl147h_32^01 lam0n13 ) 0 ) ( = ( + ( * ( - 1 ) lam0n1 ) ( * 1 lam0n3 ) ( * 1 lam0n10 ) ( * Nl147i_30^01 lam0n13 ) ) 0 ) ( = ( + ( * 1 lam0n12 ) ( * Nl147l_180^01 lam0n13 ) ) 0 ) ( = ( + ( * ( - 1 ) lam0n3 ) ( * ( - 1 ) lam0n4 ) ( * Nl147l_29^01 lam0n13 ) ) 0 ) ( = ( + ( * 1 lam0n6 ) ( * Nl147tp_35^01 lam0n13 ) ) 0 ) ( = ( + ( * 1 lam0n7 ) ( * 1 lam0n8 ) ) 0 ) ( = ( * ( - 1 ) lam0n2 ) 0 ) ( = ( + ( * 1 lam0n2 ) ( * ( - 1 ) lam0n5 ) ) 0 ) ( = ( * ( - 1 ) lam0n7 ) 0 ) ( = ( + ( * ( - 1 ) lam0n8 ) ( * 1 lam0n9 ) ) 0 ) ( = ( * ( - 1 ) lam0n9 ) 0 ) ( = ( + ( * 1 lam0n4 ) ( * 1 lam0n11 ) ) 0 ) ( = ( + ( * ( - 1 ) lam0n10 ) ( * ( - 1 ) lam0n11 ) ) 0 ) ( = ( * ( - 1 ) lam0n6 ) 0 ) ) ) ))
(check-sat)
(exit)
